500
1000
495
495
495
495
495
494
494
493
493
492
492
491
490
490
490
489
489
489
488
488
486
486
485
485
484
483
482
482
480
479
479
478
477
476
474
472
472
471
471
471
471
471
470
469
468
468
467
466
466
464
463
462
462
462
462
461
460
460
460
460
459
459
459
457
457
456
455
455
454
454
454
453
453
452
452
451
451
451
450
449
448
448
447
447
446
446
446
445
444
444
443
442
440
440
440
440
440
440
438
438
436
436
434
433
431
431
430
430
428
427
426
425
418
417
416
416
415
415
414
414
414
413
412
412
411
411
411
411
411
410
409
408
408
407
406
406
405
405
405
405
404
404
404
404
403
403
403
402
402
401
401
401
400
399
398
397
397
397
396
396
395
395
395
395
394
393
391
391
386
385
385
385
384
383
382
381
380
380
380
379
378
378
377
376
375
375
374
374
373
373
373
372
372
371
371
370
370
369
368
367
367
367
365
364
364
364
364
362
360
360
359
359
359
358
358
358
357
357
356
355
354
354
354
354
354
352
352
351
351
351
350
350
350
349
347
347
346
345
345
342
342
341
341
341
341
339
339
339
338
337
337
337
337
337
336
335
335
334
333
333
332
332
328
326
326
326
326
324
323
323
321
321
320
319
318
317
316
316
316
315
315
315
314
313
313
313
311
311
311
311
311
311
310
310
310
309
309
309
309
308
308
308
307
307
306
306
304
303
303
302
301
300
299
299
298
298
298
297
297
297
297
295
294
294
293
293
292
292
292
291
291
290
290
290
289
287
287
286
283
283
282
281
281
280
279
279
278
278
276
276
275
274
274
274
271
269
269
268
268
268
266
265
263
261
261
257
257
257
256
255
255
253
253
252
251
251
250
249
249
248
247
246
245
245
244
244
242
242
241
239
238
237
236
235
235
234
234
233
233
232
231
230
230
230
229
228
227
226
225
225
224
223
222
221
221
220
218
218
217
215
214
214
214
214
214
214
213
213
211
210
209
208
208
207
207
207
207
206
206
203
203
203
202
202
200
198
198
197
197
196
196
196
195
195
195
194
193
193
192
192
192
191
191
190
189
187
187
187
187
186
186
186
186
185
185
184
184
184
183
183
182
182
182
180
180
179
178
178
177
175
175
174
171
171
168
168
168
168
168
167
